NAME          COPTPROB
OBJSENSE
  MIN
ROWS
 N  __OBJ___
 L  C70     
 L  C99     
 L  C136    
 L  C196    
COLUMNS
    MARKER    'MARKER'                 'INTORG'
    x2426     __OBJ___  40
    x2426     C136      -1
    x2807     __OBJ___  79
    x2807     C70       -1
    x2807     C99       -1
    x3227     __OBJ___  62
    x3227     C136      -1
    x3227     C196      -1
    x3574     __OBJ___  69
    x3574     C70       -1
    x3967     __OBJ___  28
    x3967     C99       -1
    x3967     C196      -1
    x4563     __OBJ___  15
    x4563     C99       -1
    x5013     __OBJ___  75
    x5013     C70       -1
    x5013     C136      -1
    MARKER    'MARKER'                 'INTEND'
RHS
    RHS       __OBJ___  -2437
    RHS       C70       -1
    RHS       C99       -1
    RHS       C136      -1
    RHS       C196      -1
BOUNDS
 UP BOUND     x2426     1
 UP BOUND     x2807     1
 UP BOUND     x3227     1
 UP BOUND     x3574     1
 UP BOUND     x3967     1
 UP BOUND     x4563     1
 UP BOUND     x5013     1
ENDATA
